p tw 100 13501 2 
1 3 
1 4 
1 5 
1 6 
1 7 
1 8 
1 9 
1 10 
1 11 
1 13 
1 21 
1 22 
1 31 
1 35 
1 41 
1 44 
1 51 
1 57 
1 61 
1 68 
1 71 
1 79 
1 81 
1 86 
1 91 
1 100 
2 3 
2 4 
2 5 
2 6 
2 7 
2 8 
2 9 
2 10 
2 12 
2 20 
2 22 
2 29 
2 32 
2 38 
2 42 
2 47 
2 52 
2 56 
2 62 
2 65 
2 71 
2 72 
2 82 
2 84 
2 92 
2 93 
3 4 
3 5 
3 6 
3 7 
3 8 
3 9 
3 10 
3 13 
3 16 
3 21 
3 23 
3 33 
3 40 
3 43 
3 49 
3 53 
3 55 
3 63 
3 67 
3 72 
3 73 
3 83 
3 88 
3 93 
3 94 
4 5 
4 6 
4 7 
4 8 
4 9 
4 10 
4 14 
4 15 
4 24 
4 27 
4 31 
4 34 
4 44 
4 50 
4 54 
4 59 
4 63 
4 64 
4 74 
4 76 
4 82 
4 84 
4 94 
4 98 
5 6 
5 7 
5 8 
5 9 
5 10 
5 15 
5 18 
5 23 
5 25 
5 32 
5 35 
5 41 
5 45 
5 55 
5 60 
5 65 
5 66 
5 74 
5 75 
5 85 
5 89 
5 95 
5 97 
6 7 
6 8 
6 9 
6 10 
6 11 
6 16 
6 24 
6 26 
6 36 
6 37 
6 42 
6 46 
6 53 
6 56 
6 66 
6 70 
6 76 
6 78 
6 85 
6 86 
6 96 
6 99 
7 8 
7 9 
7 10 
7 14 
7 17 
7 27 
7 28 
7 36 
7 37 
7 45 
7 47 
7 51 
7 57 
7 67 
7 69 
7 73 
7 77 
7 87 
7 90 
7 92 
7 97 
8 9 
8 10 
8 18 
8 19 
8 28 
8 30 
8 33 
8 38 
8 46 
8 48 
8 52 
8 58 
8 64 
8 68 
8 77 
8 78 
8 81 
8 88 
8 95 
8 98 
9 10 
9 12 
9 19 
9 25 
9 29 
9 34 
9 39 
9 43 
9 49 
9 58 
9 59 
9 61 
9 69 
9 79 
9 80 
9 87 
9 89 
9 96 
9 99 
10 17 
10 20 
10 26 
10 30 
10 39 
10 40 
10 48 
10 50 
10 54 
10 60 
10 62 
10 70 
10 75 
10 80 
10 83 
10 90 
10 91 
10 100 
11 12 
11 13 
11 14 
11 15 
11 16 
11 17 
11 18 
11 19 
11 20 
11 21 
11 24 
11 31 
11 37 
11 41 
11 42 
11 51 
11 53 
11 61 
11 70 
11 71 
11 78 
11 81 
11 85 
11 91 
11 99 
12 13 
12 14 
12 15 
12 16 
12 17 
12 18 
12 19 
12 20 
12 22 
12 25 
12 32 
12 34 
12 42 
12 43 
12 52 
12 58 
12 61 
12 62 
12 72 
12 80 
12 82 
12 87 
12 92 
12 96 
13 14 
13 15 
13 16 
13 17 
13 18 
13 19 
13 20 
13 22 
13 23 
13 33 
13 35 
13 43 
13 44 
13 53 
13 57 
13 63 
13 68 
13 73 
13 79 
13 83 
13 86 
13 93 
13 100 
14 15 
14 16 
14 17 
14 18 
14 19 
14 20 
14 24 
14 28 
14 34 
14 36 
14 44 
14 45 
14 51 
14 54 
14 64 
14 69 
14 73 
14 74 
14 84 
14 90 
14 92 
14 94 
15 16 
15 17 
15 18 
15 19 
15 20 
15 25 
15 27 
15 31 
15 35 
15 45 
15 50 
15 55 
15 59 
15 63 
15 65 
15 75 
15 76 
15 82 
15 85 
15 95 
15 98 
16 17 
16 18 
16 19 
16 20 
16 21 
16 26 
16 36 
16 40 
16 46 
16 49 
16 55 
16 56 
16 66 
16 67 
16 72 
16 76 
16 86 
16 88 
16 94 
16 96 
17 18 
17 19 
17 20 
17 26 
17 27 
17 37 
17 39 
17 47 
17 48 
17 54 
17 57 
17 62 
17 67 
17 75 
17 77 
17 83 
17 87 
17 91 
17 97 
18 19 
18 20 
18 23 
18 28 
18 32 
18 38 
18 41 
18 48 
18 58 
18 60 
18 66 
18 68 
18 74 
18 78 
18 88 
18 89 
18 97 
18 98 
19 20 
19 29 
19 30 
19 33 
19 39 
19 46 
19 49 
19 52 
19 59 
19 64 
19 69 
19 77 
19 79 
19 81 
19 89 
19 95 
19 99 
20 29 
20 30 
20 38 
20 40 
20 47 
20 50 
20 56 
20 60 
20 65 
20 70 
20 71 
20 80 
20 84 
20 90 
20 93 
20 100 
21 22 
21 23 
21 24 
21 25 
21 26 
21 27 
21 28 
21 29 
21 30 
21 31 
21 40 
21 41 
21 49 
21 51 
21 55 
21 61 
21 67 
21 71 
21 72 
21 81 
21 88 
21 91 
21 94 
22 23 
22 24 
22 25 
22 26 
22 27 
22 28 
22 29 
22 30 
22 32 
22 35 
22 42 
22 44 
22 52 
22 57 
22 62 
22 68 
22 72 
22 79 
22 82 
22 86 
22 92 
22 100 
23 24 
23 25 
23 26 
23 27 
23 28 
23 29 
23 30 
23 32 
23 33 
23 41 
23 43 
23 53 
23 60 
23 63 
23 66 
23 73 
23 74 
23 83 
23 89 
23 93 
23 97 
24 25 
24 26 
24 27 
24 28 
24 29 
24 30 
24 34 
24 37 
24 42 
24 44 
24 53 
24 54 
24 64 
24 70 
24 74 
24 78 
24 84 
24 85 
24 94 
24 99 
25 26 
25 27 
25 28 
25 29 
25 30 
25 34 
25 35 
25 43 
25 45 
25 55 
25 58 
25 61 
25 65 
25 75 
25 80 
25 85 
25 87 
25 95 
25 96 
26 27 
26 28 
26 29 
26 30 
26 36 
26 39 
26 46 
26 48 
26 54 
26 56 
26 62 
26 66 
26 75 
26 76 
26 83 
26 86 
26 91 
26 96 
27 28 
27 29 
27 30 
27 31 
27 37 
27 47 
27 50 
27 57 
27 59 
27 63 
27 67 
27 76 
27 77 
27 82 
27 87 
27 97 
27 98 
28 29 
28 30 
28 36 
28 38 
28 45 
28 48 
28 51 
28 58 
28 68 
28 69 
28 73 
28 78 
28 88 
28 90 
28 92 
28 98 
29 30 
29 38 
29 39 
29 47 
29 49 
29 56 
29 59 
29 65 
29 69 
29 71 
29 79 
29 84 
29 89 
29 93 
29 99 
30 33 
30 40 
30 46 
30 50 
30 52 
30 60 
30 64 
30 70 
30 77 
30 80 
30 81 
30 90 
30 95 
30 100 
31 32 
31 33 
31 34 
31 35 
31 36 
31 37 
31 38 
31 39 
31 40 
31 41 
31 50 
31 51 
31 59 
31 61 
31 63 
31 71 
31 76 
31 81 
31 82 
31 91 
31 98 
32 33 
32 34 
32 35 
32 36 
32 37 
32 38 
32 39 
32 40 
32 41 
32 42 
32 52 
32 60 
32 62 
32 66 
32 72 
32 74 
32 82 
32 89 
32 92 
32 97 
33 34 
33 35 
33 36 
33 37 
33 38 
33 39 
33 40 
33 43 
33 46 
33 52 
33 53 
33 63 
33 64 
33 73 
33 77 
33 81 
33 83 
33 93 
33 95 
34 35 
34 36 
34 37 
34 38 
34 39 
34 40 
34 43 
34 44 
34 54 
34 58 
34 61 
34 64 
34 74 
34 80 
34 84 
34 87 
34 94 
34 96 
35 36 
35 37 
35 38 
35 39 
35 40 
35 44 
35 45 
35 55 
35 57 
35 65 
35 68 
35 75 
35 79 
35 85 
35 86 
35 95 
35 100 
36 37 
36 38 
36 39 
36 40 
36 45 
36 46 
36 51 
36 56 
36 66 
36 69 
36 73 
36 76 
36 86 
36 90 
36 92 
36 96 
37 38 
37 39 
37 40 
37 42 
37 47 
37 53 
37 57 
37 67 
37 70 
37 77 
37 78 
37 85 
37 87 
37 97 
37 99 
38 39 
38 40 
38 47 
38 48 
38 56 
38 58 
38 65 
38 68 
38 71 
38 78 
38 84 
38 88 
38 93 
38 98 
39 40 
39 48 
39 49 
39 54 
39 59 
39 62 
39 69 
39 75 
39 79 
39 83 
39 89 
39 91 
39 99 
40 49 
40 50 
40 55 
40 60 
40 67 
40 70 
40 72 
40 80 
40 88 
40 90 
40 94 
40 100 
41 42 
41 43 
41 44 
41 45 
41 46 
41 47 
41 48 
41 49 
41 50 
41 51 
41 60 
41 61 
41 66 
41 71 
41 74 
41 81 
41 89 
41 91 
41 97 
42 43 
42 44 
42 45 
42 46 
42 47 
42 48 
42 49 
42 50 
42 52 
42 53 
42 62 
42 70 
42 72 
42 78 
42 82 
42 85 
42 92 
42 99 
43 44 
43 45 
43 46 
43 47 
43 48 
43 49 
43 50 
43 53 
43 58 
43 61 
43 63 
43 73 
43 80 
43 83 
43 87 
43 93 
43 96 
44 45 
44 46 
44 47 
44 48 
44 49 
44 50 
44 54 
44 57 
44 64 
44 68 
44 74 
44 79 
44 84 
44 86 
44 94 
44 100 
45 46 
45 47 
45 48 
45 49 
45 50 
45 51 
45 55 
45 65 
45 69 
45 73 
45 75 
45 85 
45 90 
45 92 
45 95 
46 47 
46 48 
46 49 
46 50 
46 52 
46 56 
46 64 
46 66 
46 76 
46 77 
46 81 
46 86 
46 95 
46 96 
47 48 
47 49 
47 50 
47 56 
47 57 
47 65 
47 67 
47 71 
47 77 
47 84 
47 87 
47 93 
47 97 
48 49 
48 50 
48 54 
48 58 
48 62 
48 68 
48 75 
48 78 
48 83 
48 88 
48 91 
48 98 
49 50 
49 55 
49 59 
49 67 
49 69 
49 72 
49 79 
49 88 
49 89 
49 94 
49 99 
50 59 
50 60 
50 63 
50 70 
50 76 
50 80 
50 82 
50 90 
50 98 
50 100 
51 52 
51 53 
51 54 
51 55 
51 56 
51 57 
51 58 
51 59 
51 60 
51 61 
51 69 
51 71 
51 73 
51 81 
51 90 
51 91 
51 92 
52 53 
52 54 
52 55 
52 56 
52 57 
52 58 
52 59 
52 60 
52 62 
52 64 
52 72 
52 77 
52 81 
52 82 
52 92 
52 95 
53 54 
53 55 
53 56 
53 57 
53 58 
53 59 
53 60 
53 63 
53 70 
53 73 
53 78 
53 83 
53 85 
53 93 
53 99 
54 55 
54 56 
54 57 
54 58 
54 59 
54 60 
54 62 
54 64 
54 74 
54 75 
54 83 
54 84 
54 91 
54 94 
55 56 
55 57 
55 58 
55 59 
55 60 
55 65 
55 67 
55 72 
55 75 
55 85 
55 88 
55 94 
55 95 
56 57 
56 58 
56 59 
56 60 
56 65 
56 66 
56 71 
56 76 
56 84 
56 86 
56 93 
56 96 
57 58 
57 59 
57 60 
57 67 
57 68 
57 77 
57 79 
57 86 
57 87 
57 97 
57 100 
58 59 
58 60 
58 61 
58 68 
58 78 
58 80 
58 87 
58 88 
58 96 
58 98 
59 60 
59 63 
59 69 
59 76 
59 79 
59 82 
59 89 
59 98 
59 99 
60 66 
60 70 
60 74 
60 80 
60 89 
60 90 
60 97 
60 100 
61 62 
61 63 
61 64 
61 65 
61 66 
61 67 
61 68 
61 69 
61 70 
61 71 
61 80 
61 81 
61 87 
61 91 
61 96 
62 63 
62 64 
62 65 
62 66 
62 67 
62 68 
62 69 
62 70 
62 72 
62 75 
62 82 
62 83 
62 91 
62 92 
63 64 
63 65 
63 66 
63 67 
63 68 
63 69 
63 70 
63 73 
63 76 
63 82 
63 83 
63 93 
63 98 
64 65 
64 66 
64 67 
64 68 
64 69 
64 70 
64 74 
64 77 
64 81 
64 84 
64 94 
64 95 
65 66 
65 67 
65 68 
65 69 
65 70 
65 71 
65 75 
65 84 
65 85 
65 93 
65 95 
66 67 
66 68 
66 69 
66 70 
66 74 
66 76 
66 86 
66 89 
66 96 
66 97 
67 68 
67 69 
67 70 
67 72 
67 77 
67 87 
67 88 
67 94 
67 97 
68 69 
68 70 
68 78 
68 79 
68 86 
68 88 
68 98 
68 100 
69 70 
69 73 
69 79 
69 89 
69 90 
69 92 
69 99 
70 78 
70 80 
70 85 
70 90 
70 99 
70 100 
71 72 
71 73 
71 74 
71 75 
71 76 
71 77 
71 78 
71 79 
71 80 
71 81 
71 84 
71 91 
71 93 
72 73 
72 74 
72 75 
72 76 
72 77 
72 78 
72 79 
72 80 
72 82 
72 88 
72 92 
72 94 
73 74 
73 75 
73 76 
73 77 
73 78 
73 79 
73 80 
73 83 
73 90 
73 92 
73 93 
74 75 
74 76 
74 77 
74 78 
74 79 
74 80 
74 84 
74 89 
74 94 
74 97 
75 76 
75 77 
75 78 
75 79 
75 80 
75 83 
75 85 
75 91 
75 95 
76 77 
76 78 
76 79 
76 80 
76 82 
76 86 
76 96 
76 98 
77 78 
77 79 
77 80 
77 81 
77 87 
77 95 
77 97 
78 79 
78 80 
78 85 
78 88 
78 98 
78 99 
79 80 
79 86 
79 89 
79 99 
79 100 
80 87 
80 90 
80 96 
80 100 
81 82 
81 83 
81 84 
81 85 
81 86 
81 87 
81 88 
81 89 
81 90 
81 91 
81 95 
82 83 
82 84 
82 85 
82 86 
82 87 
82 88 
82 89 
82 90 
82 92 
82 98 
83 84 
83 85 
83 86 
83 87 
83 88 
83 89 
83 90 
83 91 
83 93 
84 85 
84 86 
84 87 
84 88 
84 89 
84 90 
84 93 
84 94 
85 86 
85 87 
85 88 
85 89 
85 90 
85 95 
85 99 
86 87 
86 88 
86 89 
86 90 
86 96 
86 100 
87 88 
87 89 
87 90 
87 96 
87 97 
88 89 
88 90 
88 94 
88 98 
89 90 
89 97 
89 99 
90 92 
90 100 
91 92 
91 93 
91 94 
91 95 
91 96 
91 97 
91 98 
91 99 
91 100 
92 93 
92 94 
92 95 
92 96 
92 97 
92 98 
92 99 
92 100 
93 94 
93 95 
93 96 
93 97 
93 98 
93 99 
93 100 
94 95 
94 96 
94 97 
94 98 
94 99 
94 100 
95 96 
95 97 
95 98 
95 99 
95 100 
96 97 
96 98 
96 99 
96 100 
97 98 
97 99 
97 100 
98 99 
98 100 
99 100 
